File : Instances/p58
Used 69s
38658

1 0 0 1 0 1 1 0 1 0 0 0 0 0 1 0 1 0 1 1 0 1 0 0 1 1 1 1 1 1 
18 19 21 27 21 6 21 27 27 28 29 28 3 3 28 18 3 8 16 0 18 16 5 24 14 18 27 19 29 21 19 19 26 16 27 6 8 8 24 16 18 26 6 26 8 26 3 21 19 14 24 16 24 16 8 6 18 26 18 25 29 0 18 8 3 25 0 14 19 25 18 6 19 26 14 5 8 5 8 16 5 0 26 25 29 8 19 5 27 25 28 6 25 25 0 3 28 19 0 28 28 16 25 18 29 0 29 24 16 3 19 29 27 6 6 8 28 25 14 8 26 25 28 19 26 16 21 28 26 0 28 24 25 14 5 26 3 3 28 14 6 27 28 25 25 5 24 16 27 25 24 0 5 0 8 27 5 16 3 3 3 27 3 24 5 27 5 29 3 21 5 8 19 14 26 21 0 14 29 14 5 21 24 19 6 8 28 5 0 21 21 21 6 29 18 6 25 21 14 19 
